SCIP version 5.0.0 [precision: 8 byte] [memory: block] [mode: optimized] [LP solver: NONE] [GitHash: 3bbd232]
Copyright (C) 2002-2017 Konrad-Zuse-Zentrum fuer Informationstechnik Berlin (ZIB)

External codes: 
  Readline EditLine w  GNU library for command line editing (gnu.org/s/readline)
  CppAD 20160000.1     Algorithmic Differentiation of C++ algorithms developed by B. Bell (www.coin-or.org/CppAD)
  ZLIB 1.2.5           General purpose compression library by J. Gailly and M. Adler (zlib.net)
  GMP 6.1.2            GNU Multiple Precision Arithmetic Library developed by T. Granlund (gmplib.org)

user parameter file <scip.set> not found - using default parameters

read problem <../../Split_data/output/breast/2/4_sample_breast.logreg>
============

File name	:	../../Split_data/output/breast/2/4_sample_breast.logreg
Problem name 	:	4_sample_breast
Number of data	:	155
Number of var	:	33
The given data has linear independence

[dim=1] time: 0.004138
[dim=2] time: 0.00799
[dim=3] time: 0.01205
[dim=4] time: 0.015824
[dim=5] time: 0.019387
[dim=6] Time of forward = 0.023057sec.
AIC: 141.189
k: 5

[dim=33] time: 0.01748
[dim=32] time: 0.028457
[dim=31] time: 0.04217
[dim=30] time: 0.058886
[dim=29] time: 0.076042
[dim=28] time: 0.087027
[dim=27] time: 0.102457
[dim=26] time: 0.112333
[dim=25] time: 0.126182
[dim=24] Time of backward = 0.136499sec.
AIC: 112.692
k: 25
